solution status: optimal solution found
objective value:                                    0
$_52_y                                              3 	(obj:0)
$_52_z                                             19 	(obj:0)
$_29_y                                              4 	(obj:0)
$_29_z                                             22 	(obj:0)
$_21__0_y                                          23 	(obj:0)
$_21__0_z                                          23 	(obj:0)
$_64_y                                              4 	(obj:0)
$_64_z                                             19 	(obj:0)
$_15_y                                              9 	(obj:0)
$_15_z                                             22 	(obj:0)
$_23__0_y                                          -3 	(obj:0)
$_23__0_z                                          20 	(obj:0)
$_20__0_y                                          23 	(obj:0)
$_20__0_z                                          18 	(obj:0)
$_24__0_y                                          23 	(obj:0)
$_24__0_z                                          19 	(obj:0)
$_42_y                                             12 	(obj:0)
$_42_z                                             20 	(obj:0)
$_26_y                                              9 	(obj:0)
$_26_z                                             16 	(obj:0)
$_22__0_y                                          25 	(obj:0)
$_18__0_y                                         -21 	(obj:0)
$_18__0_z                                           3 	(obj:0)
$_25__0_y                                          23 	(obj:0)
$_25__0_z                                          20 	(obj:0)
$_16_y                                              7 	(obj:0)
$_16_z                                             23 	(obj:0)
$_30_y                                              9 	(obj:0)
$_30_z                                             19 	(obj:0)
$_14_y                                              9 	(obj:0)
$_14_z                                             20 	(obj:0)
$_19__0_y                                         -25 	(obj:0)
$_19__0_z                                          25 	(obj:0)
$_27_y                                              9 	(obj:0)
$_27_z                                             23 	(obj:0)
$_17_y                                              3 	(obj:0)
$_17_z                                             23 	(obj:0)
$_28_y                                              8 	(obj:0)
$_28_z                                             23 	(obj:0)
